p edge 110 627
e 1 4
e 1 9
e 1 14
e 1 26
e 1 27
e 1 29
e 1 50
e 1 51
e 1 76
e 1 77
e 1 90
e 1 104
e 1 108
e 1 109
e 2 16
e 2 29
e 2 45
e 2 68
e 2 90
e 2 93
e 3 6
e 3 10
e 3 29
e 3 30
e 3 31
e 3 32
e 3 33
e 3 40
e 3 53
e 3 55
e 3 60
e 3 69
e 3 86
e 3 101
e 4 5
e 4 8
e 4 18
e 4 29
e 4 52
e 4 58
e 4 61
e 4 81
e 4 105
e 4 109
e 5 10
e 5 12
e 5 16
e 5 23
e 5 37
e 5 38
e 5 39
e 5 42
e 5 48
e 5 50
e 5 57
e 5 64
e 5 66
e 5 67
e 5 68
e 5 79
e 5 108
e 6 17
e 6 23
e 6 29
e 6 51
e 6 61
e 6 78
e 6 91
e 7 37
e 7 40
e 7 43
e 7 45
e 7 50
e 7 57
e 7 64
e 7 71
e 7 75
e 7 98
e 7 103
e 7 110
e 8 9
e 8 26
e 8 52
e 8 73
e 8 90
e 8 104
e 8 109
e 8 110
e 9 13
e 9 23
e 9 26
e 9 31
e 9 34
e 9 36
e 9 45
e 9 48
e 9 54
e 9 67
e 9 69
e 9 72
e 9 74
e 9 77
e 9 84
e 9 85
e 9 94
e 10 24
e 10 33
e 10 46
e 10 54
e 10 62
e 10 63
e 10 74
e 10 75
e 10 76
e 10 78
e 10 79
e 10 93
e 10 104
e 10 109
e 11 31
e 11 45
e 11 63
e 11 96
e 11 109
e 12 15
e 12 28
e 12 33
e 12 35
e 12 48
e 12 68
e 12 69
e 12 95
e 12 98
e 13 29
e 13 42
e 13 47
e 13 48
e 13 55
e 13 63
e 13 72
e 13 77
e 13 78
e 13 91
e 13 108
e 14 15
e 14 24
e 14 31
e 14 59
e 14 60
e 14 63
e 14 83
e 14 88
e 14 91
e 14 94
e 14 100
e 15 21
e 15 38
e 15 54
e 15 57
e 15 72
e 15 79
e 15 86
e 15 101
e 15 102
e 15 104
e 15 106
e 16 25
e 16 31
e 16 40
e 16 46
e 16 47
e 16 53
e 16 59
e 16 61
e 16 68
e 16 69
e 16 86
e 16 91
e 16 95
e 16 105
e 17 20
e 17 31
e 17 58
e 17 70
e 17 91
e 17 92
e 17 97
e 17 102
e 18 22
e 18 25
e 18 48
e 18 50
e 18 52
e 18 62
e 18 66
e 18 76
e 18 87
e 18 100
e 19 24
e 19 37
e 19 53
e 19 64
e 19 78
e 19 82
e 19 107
e 19 109
e 20 22
e 20 26
e 20 27
e 20 35
e 20 43
e 20 57
e 20 86
e 20 91
e 20 99
e 20 103
e 21 50
e 21 53
e 21 57
e 21 70
e 22 33
e 22 35
e 22 38
e 22 41
e 22 48
e 22 50
e 22 51
e 22 54
e 22 55
e 22 65
e 22 67
e 22 68
e 22 72
e 22 75
e 22 77
e 22 80
e 22 83
e 22 97
e 22 98
e 22 109
e 22 110
e 23 40
e 23 41
e 23 65
e 23 68
e 23 75
e 23 89
e 23 99
e 23 100
e 23 102
e 23 106
e 24 33
e 24 45
e 24 57
e 24 77
e 24 78
e 24 89
e 24 95
e 24 104
e 24 108
e 25 26
e 25 37
e 25 38
e 25 43
e 25 47
e 25 52
e 25 70
e 25 90
e 25 93
e 25 99
e 26 32
e 26 42
e 26 77
e 26 82
e 26 84
e 26 87
e 26 96
e 26 109
e 27 45
e 27 48
e 27 60
e 27 73
e 27 76
e 27 78
e 27 81
e 27 89
e 27 93
e 27 107
e 28 29
e 28 31
e 28 70
e 29 31
e 29 34
e 29 37
e 29 46
e 29 53
e 29 55
e 29 86
e 29 107
e 30 49
e 30 57
e 30 60
e 30 64
e 30 107
e 30 108
e 30 109
e 31 46
e 31 56
e 31 65
e 31 81
e 31 84
e 31 90
e 31 101
e 32 38
e 32 43
e 32 51
e 32 60
e 32 64
e 32 96
e 32 110
e 33 57
e 33 78
e 33 80
e 33 92
e 33 103
e 34 36
e 34 81
e 34 87
e 34 90
e 34 101
e 34 103
e 34 109
e 35 54
e 35 77
e 35 84
e 35 96
e 36 39
e 36 43
e 36 51
e 36 60
e 36 80
e 36 102
e 36 104
e 37 57
e 37 67
e 37 70
e 37 72
e 37 89
e 37 90
e 37 92
e 37 97
e 37 107
e 38 39
e 38 40
e 38 51
e 38 64
e 38 71
e 38 90
e 38 94
e 38 102
e 39 41
e 39 45
e 39 46
e 39 56
e 39 60
e 39 62
e 39 67
e 39 71
e 39 76
e 39 79
e 39 86
e 39 99
e 39 108
e 40 47
e 40 57
e 40 87
e 40 88
e 40 96
e 40 102
e 40 106
e 41 49
e 41 63
e 41 69
e 41 98
e 41 106
e 42 49
e 42 50
e 42 51
e 42 63
e 42 72
e 42 74
e 42 86
e 42 97
e 42 102
e 43 44
e 43 48
e 43 60
e 43 63
e 43 81
e 43 95
e 43 98
e 44 49
e 44 50
e 44 51
e 44 63
e 44 73
e 44 77
e 44 85
e 44 90
e 45 47
e 45 55
e 45 71
e 45 81
e 45 88
e 45 91
e 45 92
e 45 101
e 45 103
e 45 109
e 46 59
e 46 65
e 46 81
e 46 103
e 47 60
e 47 62
e 47 63
e 47 76
e 47 81
e 47 86
e 47 103
e 47 104
e 47 108
e 48 76
e 48 78
e 48 79
e 48 86
e 48 106
e 48 109
e 49 57
e 49 61
e 49 76
e 49 79
e 49 81
e 49 99
e 49 109
e 50 52
e 50 73
e 50 77
e 50 90
e 50 92
e 50 93
e 50 110
e 51 57
e 51 64
e 51 101
e 52 53
e 52 55
e 52 58
e 52 70
e 52 72
e 52 75
e 52 84
e 52 88
e 52 89
e 52 96
e 52 107
e 52 110
e 53 62
e 53 83
e 53 85
e 53 96
e 53 97
e 53 105
e 54 58
e 54 92
e 54 95
e 54 97
e 54 98
e 54 105
e 55 69
e 55 71
e 55 78
e 55 87
e 55 95
e 55 100
e 55 101
e 56 57
e 56 65
e 56 68
e 56 72
e 56 75
e 56 81
e 56 92
e 56 100
e 56 106
e 56 110
e 57 62
e 57 64
e 57 66
e 57 74
e 57 86
e 57 87
e 57 89
e 57 90
e 58 73
e 58 74
e 58 77
e 58 93
e 58 99
e 58 102
e 58 107
e 58 109
e 59 63
e 59 76
e 60 78
e 60 85
e 60 102
e 60 109
e 61 65
e 61 76
e 61 78
e 61 89
e 61 96
e 61 110
e 62 70
e 62 78
e 62 79
e 62 83
e 62 91
e 62 110
e 63 84
e 63 95
e 63 97
e 63 100
e 63 106
e 63 107
e 64 67
e 64 97
e 64 100
e 64 110
e 65 81
e 65 97
e 65 100
e 65 105
e 65 106
e 66 85
e 66 94
e 66 104
e 66 107
e 67 69
e 67 79
e 67 93
e 67 103
e 68 76
e 68 88
e 68 91
e 68 93
e 68 102
e 69 72
e 69 74
e 69 80
e 69 84
e 69 87
e 69 101
e 69 103
e 70 80
e 70 81
e 71 72
e 71 78
e 71 85
e 71 87
e 71 89
e 71 96
e 71 102
e 71 109
e 72 91
e 72 98
e 72 104
e 73 81
e 73 83
e 73 106
e 74 82
e 74 99
e 74 103
e 74 105
e 74 106
e 75 81
e 75 87
e 75 88
e 75 95
e 75 106
e 75 110
e 76 82
e 76 105
e 77 82
e 77 106
e 79 93
e 80 86
e 80 105
e 81 107
e 82 93
e 82 107
e 83 88
e 83 101
e 84 88
e 84 92
e 84 110
e 87 100
e 88 107
e 90 94
e 91 94
e 92 102
e 93 94
e 93 101
e 93 102
e 93 106
e 94 95
e 94 96
e 96 108
e 97 106
e 98 108
e 99 104
e 99 110
e 101 105
e 102 108
e 106 108
e 108 109
